n=10;
hearts=9;
clubs=90;
spades=63;
diamonds=46;
blocked=23;
m=array2d(1..n, 1..n,[
	5,_,5,_,_,_,_,2,_,_,
	_,_,5,_,_,5,_,_,5,_,
	_,5,_,5,5,_,_,_,_,_,
	_,_,_,_,5,_,_,_,_,_,
	5,_,_,_,_,_,_,_,_,_,
	5,_,_,_,_,_,_,_,5,5,
	5,_,_,_,_,5,_,_,_,_,
	_,_,5,3,_,_,5,5,_,_,
	_,_,_,5,5,_,_,_,_,_,
	_,_,_,_,_,_,5,5,5,2
]);
